
Gurobi 9.1.2 (win64, Java) logging started Sat Nov  6 09:45:19 2021

Academic license - for non-commercial use only - expires 2022-10-30
Gurobi Optimizer version 9.1.2 build v9.1.2rc0 (win64)
Thread count: 6 physical cores, 12 logical processors, using up to 12 threads
Optimize a model with 30 rows, 200 columns and 400 nonzeros
Model fingerprint: 0x10aa0fb6
Variable types: 0 continuous, 200 integer (200 binary)
Coefficient statistics:
  Matrix range     [1e+00, 1e+03]
  Objective range  [4e+02, 1e+03]
  Bounds range     [1e+00, 1e+00]
  RHS range        [1e+00, 9e+02]
Found heuristic solution: objective 8389.0000000
Presolve removed 7 rows and 127 columns
Presolve time: 0.00s
Presolved: 23 rows, 73 columns, 146 nonzeros
Variable types: 0 continuous, 73 integer (73 binary)
Presolved: 23 rows, 73 columns, 146 nonzeros


Root relaxation: objective 1.048250e+04, 29 iterations, 0.00 seconds

    Nodes    |    Current Node    |     Objective Bounds      |     Work
 Expl Unexpl |  Obj  Depth IntInf | Incumbent    BestBd   Gap | It/Node Time

     0     0 10482.5024    0    4 8389.00000 10482.5024  25.0%     -    0s
H    0     0                    10145.000000 10482.5024  3.33%     -    0s
H    0     0                    10157.000000 10482.5024  3.20%     -    0s
     0     0 10342.3059    0    9 10157.0000 10342.3059  1.82%     -    0s
     0     0 10246.3020    0   10 10157.0000 10246.3020  0.88%     -    0s
     0     0     cutoff    0      10157.0000 10157.0000  0.00%     -    0s

Cutting planes:
  Gomory: 4
  Cover: 6
  MIR: 5
  StrongCG: 3

Explored 1 nodes (55 simplex iterations) in 0.09 seconds
Thread count was 12 (of 12 available processors)

Solution count 3: 10157 10145 8389 

Optimal solution found (tolerance 1.00e-04)
Best objective 1.015700000000e+04, best bound 1.015700000000e+04, gap 0.0000%
